(set-logic QF_FPBV)
(set-info :source |Random FP created by PyMPF|)
(set-info :category random)
(set-info :status unsat)
;; fp.from.sbv(BitVec 32)
(declare-const x (_ BitVec 32))
(assert (= x #b01111111010011110000000000011101))
;; x should be 2135883805
(declare-const r Float32)
(assert (= r ((_ to_fp 8 24) RTZ x)))
(assert (not (fp.eq r ((_ to_fp 8 24) #x4EFE9E00))))
(check-sat)
(exit)
